NAME : LPS-n21-m296
COMMENT : (Lartu-Peter-Santi Plot, instance 7496 out of 39200. 21 customers.)
TYPE : CVRP
DIMENSION : 21
EDGE_WEIGHT_TYPE : EUC_2D
CAPACITY : 144
NODE_COORD_SECTION
 1 69 89
 2 59 25
 3 5 51
 4 28 84
 5 33 41
 6 91 68
 7 8 40
 8 26 64
 9 90 88
 10 11 83
 11 13 99
 12 38 40
 13 82 60
 14 22 57
 15 74 10
 16 41 97
 17 100 37
 18 63 68
 19 89 82
 20 94 75
 21 96 41
DEMAND_SECTION
1 0
2 32
3 95
4 31
5 97
6 140
7 129
8 9
9 29
10 82
11 144
12 108
13 46
14 58
15 108
16 80
17 102
18 19
19 1
20 137
21 144
DEPOT_SECTION
 1
 -1
EOF
